NAME : morphed22-2-12
COMMENT : Generated using the function morphInstances from the R-package netgen (Bossek,2015) - Number of clusters: 2 Alpha: 0.5
TYPE : TSP
DIMENSION : 22
EDGE_WEIGHT_TYPE : EUC_2D
NODE_COORD_SECTION
1 24.313742611 18.3835601986
2 82.9386436423 71.3386507944
3 96.9100933048 45.986405229
4 30.0834152585 28.0260195044
5 22.8382026687 48.1124782902
6 14.8459867177 25.5434624016
7 24.9226156848 39.36480925
8 79.3326215813 70.0763533206
9 12.9711459721 29.3795288073
10 48.3059084543 81.387039594
11 67.5340215419 81.6899329436
12 90.03699325 78.0577555904
13 38.5600635213 55.2202568193
14 67.4970777801 87.8625348375
15 32.0937479308 56.4132580261
16 68.4652628351 79.6550888708
17 43.3887066596 40.4808320585
18 50.0041091512 40.4910067201
19 75.6136579991 61.4068426481
20 24.0136619681 44.0472191184
21 57.5073511207 88.8605220183
22 82.7042996962 40.0333308999
EOF
